/*********************************************
 * OPL 12.6.0.0 Data
 * Author: Adrian Rodriguez Bazaga, Pau Rodriguez Esmerats
 * Creation Date: 06/12/2017 at 23:03:12
 *********************************************/

nNurses=298;
maxConsec=2;
maxPresence=7;
maxHours=5;
minHours=1;
hours=24;
demand= [56 44 83 87 44 83 87 44 53 34 4 4 5 7 5 7 3 4 1 3 49 80 31 81  ];
